Other instances/ESC11.dat
data;
set N:= 0 1 2 3 4 5 6 7 8 9 10 11 12 ;
set C:= 1 2 3 4 5 6 7 8 9 10 11 ;
param INF:= 100000;
param c:
0 1 2 3 4 5 6 7 8 9 10 11 12 :=
0 0 0 0 0 0 0 0 0 0 0 0 0 1000000
1 -1 0 387 440 682 657 584 688 708 362 357 927 0
2 -1 -1 0 10 935 439 127 769 498 836 341 956 0
3 -1 -1 -1 0 596 865 70 513 512 373 824 220 0
4 -1 319 277 439 0 428 212 412 771 620 651 605 0
5 -1 -1 -1 60 988 0 326 279 687 295 738 270 0
6 -1 312 158 704 881 696 0 277 413 396 268 156 0
7 -1 512 939 784 271 432 771 0 279 436 31 444 0
8 -1 875 927 364 629 419 788 923 0 858 761 139 0
9 -1 365 43 766 924 845 437 395 991 0 980 359 0
10 -1 978 839 918 822 885 276 96 537 211 0 608 0
11 -1 864 168 211 455 543 904 412 535 954 971 0 0
12 -1 -1 -1 -1 -1 -1 -1 -1 -1 -1 -1 -1 0
;
param P:
0 1 2 3 4 5 6 7 8 9 10 11 12 :=
0 0 1 1 1 1 1 1 1 1 1 1 1 1
1 0 0 1 1 0 1 0 0 0 0 0 0 1
2 0 0 0 1 0 1 0 0 0 0 0 0 1
3 0 0 0 0 0 0 0 0 0 0 0 0 1
4 0 0 0 0 0 0 0 0 0 0 0 0 1
5 0 0 0 0 0 0 0 0 0 0 0 0 1
6 0 0 0 0 0 0 0 0 0 0 0 0 1
7 0 0 0 0 0 0 0 0 0 0 0 0 1
8 0 0 0 0 0 0 0 0 0 0 0 0 1
9 0 0 0 0 0 0 0 0 0 0 0 0 1
10 0 0 0 0 0 0 0 0 0 0 0 0 1
11 0 0 0 0 0 0 0 0 0 0 0 0 1
12 0 0 0 0 0 0 0 0 0 0 0 0 0
;
end;