ALL_sop/ESC11.sol
Problem:    SOP
Rows:       208
Columns:    146 (146 integer, 133 binary)
Non-zeros:  1195
Status:     INTEGER OPTIMAL
Objective:  costs = 2075 (MINimum)

   No.   Row name        Activity     Lower bound   Upper bound
------ ------------    ------------- ------------- -------------
     1 costs                    2075
     2 start                       1             1             =
     3 end                         1             1             =
     4 onevisit[1]                 1             1             =
     5 onevisit[2]                 1             1             =
     6 onevisit[3]                 1             1             =
     7 onevisit[4]                 1             1             =
     8 onevisit[5]                 1             1             =
     9 onevisit[6]                 1             1             =
    10 onevisit[7]                 1             1             =
    11 onevisit[8]                 1             1             =
    12 onevisit[9]                 1             1             =
    13 onevisit[10]                1             1             =
    14 onevisit[11]                1             1             =
    15 inLim[1]                    1             1             =
    16 inLim[2]                    1             1             =
    17 inLim[3]                    1             1             =
    18 inLim[4]                    1             1             =
    19 inLim[5]                    1             1             =
    20 inLim[6]                    1             1             =
    21 inLim[7]                    1             1             =
    22 inLim[8]                    1             1             =
    23 inLim[9]                    1             1             =
    24 inLim[10]                   1             1             =
    25 inLim[11]                   1             1             =
    26 outLim[1]                   1             1             =
    27 outLim[2]                   1             1             =
    28 outLim[3]                   1             1             =
    29 outLim[4]                   1             1             =
    30 outLim[5]                   1             1             =
    31 outLim[6]                   1             1             =
    32 outLim[7]                   1             1             =
    33 outLim[8]                   1             1             =
    34 outLim[9]                   1             1             =
    35 outLim[10]                  1             1             =
    36 outLim[11]                  1             1             =
    37 paired[1]                   2             2             =
    38 paired[2]                   2             2             =
    39 paired[3]                   2             2             =
    40 paired[4]                   2             2             =
    41 paired[5]                   2             2             =
    42 paired[6]                   2             2             =
    43 paired[7]                   2             2             =
    44 paired[8]                   2             2             =
    45 paired[9]                   2             2             =
    46 paired[10]                  2             2             =
    47 paired[11]                  2             2             =
    48 order[0,1]                 -2                       99999
    49 order[0,2]                 -4                       99999
    50 order[0,3]                 -6                       99999
    51 order[0,4]              99999                       99999
    52 order[0,5]                 -5                       99999
    53 order[0,6]                 -7                       99999
    54 order[0,7]                 -9                       99999
    55 order[0,8]                -10                       99999
    56 order[0,9]                 -3                       99999
    57 order[0,10]                -8                       99999
    58 order[0,11]               -11                       99999
    59 order[0,12]               -12                       99999
    60 order[1,2]                 -2                       99999
    61 order[1,3]                 -4                       99999
    62 order[1,4]                  1                       99999
    63 order[1,5]                 -3                       99999
    64 order[1,6]                 -5                       99999
    65 order[1,7]                 -7                       99999
    66 order[1,8]                 -8                       99999
    67 order[1,9]              99999                       99999
    68 order[1,10]                -6                       99999
    69 order[1,11]                -9                       99999
    70 order[1,12]               -10                       99999
    71 order[2,1]                  2                       99999
    72 order[2,3]                 -2                       99999
    73 order[2,4]                  3                       99999
    74 order[2,5]              99999                       99999
    75 order[2,6]                 -3                       99999
    76 order[2,7]                 -5                       99999
    77 order[2,8]                 -6                       99999
    78 order[2,9]                  1                       99999
    79 order[2,10]                -4                       99999
    80 order[2,11]                -7                       99999
    81 order[2,12]                -8                       99999
    82 order[3,1]                  4                       99999
    83 order[3,2]                  2                       99999
    84 order[3,4]                  5                       99999
    85 order[3,5]                  1                       99999
    86 order[3,6]              99999                       99999
    87 order[3,7]                 -3                       99999
    88 order[3,8]                 -4                       99999
    89 order[3,9]                  3                       99999
    90 order[3,10]                -2                       99999
    91 order[3,11]                -5                       99999
    92 order[3,12]                -6                       99999
    93 order[4,1]              99999                       99999
    94 order[4,2]                 -3                       99999
    95 order[4,3]                 -5                       99999
    96 order[4,5]                 -4                       99999
    97 order[4,6]                 -6                       99999
    98 order[4,7]                 -8                       99999
    99 order[4,8]                 -9                       99999
   100 order[4,9]                 -2                       99999
   101 order[4,10]                -7                       99999
   102 order[4,11]               -10                       99999
   103 order[4,12]               -11                       99999
   104 order[5,1]                  3                       99999
   105 order[5,2]                  1                       99999
   106 order[5,3]              99999                       99999
   107 order[5,4]                  4                       99999
   108 order[5,6]                 -2                       99999
   109 order[5,7]                 -4                       99999
   110 order[5,8]                 -5                       99999
   111 order[5,9]                  2                       99999
   112 order[5,10]                -3                       99999
   113 order[5,11]                -6                       99999
   114 order[5,12]                -7                       99999
   115 order[6,1]                  5                       99999
   116 order[6,2]                  3                       99999
   117 order[6,3]                  1                       99999
   118 order[6,4]                  6                       99999
   119 order[6,5]                  2                       99999
   120 order[6,7]                 -2                       99999
   121 order[6,8]                 -3                       99999
   122 order[6,9]                  4                       99999
   123 order[6,10]             99999                       99999
   124 order[6,11]                -4                       99999
   125 order[6,12]                -5                       99999
   126 order[7,1]                  7                       99999
   127 order[7,2]                  5                       99999
   128 order[7,3]                  3                       99999
   129 order[7,4]                  8                       99999
   130 order[7,5]                  4                       99999
   131 order[7,6]                  2                       99999
   132 order[7,8]              99999                       99999
   133 order[7,9]                  6                       99999
   134 order[7,10]                 1                       99999
   135 order[7,11]                -2                       99999
   136 order[7,12]                -3                       99999
   137 order[8,1]                  8                       99999
   138 order[8,2]                  6                       99999
   139 order[8,3]                  4                       99999
   140 order[8,4]                  9                       99999
   141 order[8,5]                  5                       99999
   142 order[8,6]                  3                       99999
   143 order[8,7]                  1                       99999
   144 order[8,9]                  7                       99999
   145 order[8,10]                 2                       99999
   146 order[8,11]             99999                       99999
   147 order[8,12]                -2                       99999
   148 order[9,1]                  1                       99999
   149 order[9,2]              99999                       99999
   150 order[9,3]                 -3                       99999
   151 order[9,4]                  2                       99999
   152 order[9,5]                 -2                       99999
   153 order[9,6]                 -4                       99999
   154 order[9,7]                 -6                       99999
   155 order[9,8]                 -7                       99999
   156 order[9,10]                -5                       99999
   157 order[9,11]                -8                       99999
   158 order[9,12]                -9                       99999
   159 order[10,1]                 6                       99999
   160 order[10,2]                 4                       99999
   161 order[10,3]                 2                       99999
   162 order[10,4]                 7                       99999
   163 order[10,5]                 3                       99999
   164 order[10,6]                 1                       99999
   165 order[10,7]             99999                       99999
   166 order[10,8]                -2                       99999
   167 order[10,9]                 5                       99999
   168 order[10,11]               -3                       99999
   169 order[10,12]               -4                       99999
   170 order[11,1]                 9                       99999
   171 order[11,2]                 7                       99999
   172 order[11,3]                 5                       99999
   173 order[11,4]                10                       99999
   174 order[11,5]                 6                       99999
   175 order[11,6]                 4                       99999
   176 order[11,7]                 2                       99999
   177 order[11,8]                 1                       99999
   178 order[11,9]                 8                       99999
   179 order[11,10]                3                       99999
   180 order[11,12]            99999                       99999
   181 prec[0,1]                  -2                          -1
   182 prec[0,2]                  -4                          -1
   183 prec[0,3]                  -6                          -1
   184 prec[0,4]                  -1                          -1
   185 prec[0,5]                  -5                          -1
   186 prec[0,6]                  -7                          -1
   187 prec[0,7]                  -9                          -1
   188 prec[0,8]                 -10                          -1
   189 prec[0,9]                  -3                          -1
   190 prec[0,10]                 -8                          -1
   191 prec[0,11]                -11                          -1
   192 prec[0,12]                -12                          -1
   193 prec[1,2]                  -2                          -1
   194 prec[1,3]                  -4                          -1
   195 prec[1,5]                  -3                          -1
   196 prec[1,12]                -10                          -1
   197 prec[2,3]                  -2                          -1
   198 prec[2,5]                  -1                          -1
   199 prec[2,12]                 -8                          -1
   200 prec[3,12]                 -6                          -1
   201 prec[4,12]                -11                          -1
   202 prec[5,12]                 -7                          -1
   203 prec[6,12]                 -5                          -1
   204 prec[7,12]                 -3                          -1
   205 prec[8,12]                 -2                          -1
   206 prec[9,12]                 -9                          -1
   207 prec[10,12]                -4                          -1
   208 prec[11,12]                -1                          -1

   No. Column name       Activity     Lower bound   Upper bound
------ ------------    ------------- ------------- -------------
     1 x[0,1]       *              0             0             1
     2 x[0,2]       *              0             0             1
     3 x[0,3]       *              0             0             1
     4 x[0,4]       *              1             0             1
     5 x[0,5]       *              0             0             1
     6 x[0,6]       *              0             0             1
     7 x[0,7]       *              0             0             1
     8 x[0,8]       *              0             0             1
     9 x[0,9]       *              0             0             1
    10 x[0,10]      *              0             0             1
    11 x[0,11]      *              0             0             1
    12 x[0,12]      *              0             0             1
    13 x[1,2]       *              0             0             1
    14 x[1,3]       *              0             0             1
    15 x[1,4]       *              0             0             1
    16 x[1,5]       *              0             0             1
    17 x[1,6]       *              0             0             1
    18 x[1,7]       *              0             0             1
    19 x[1,8]       *              0             0             1
    20 x[1,9]       *              1             0             1
    21 x[1,10]      *              0             0             1
    22 x[1,11]      *              0             0             1
    23 x[1,12]      *              0             0             1
    24 x[2,1]       *              0             0             1
    25 x[2,3]       *              0             0             1
    26 x[2,4]       *              0             0             1
    27 x[2,5]       *              1             0             1
    28 x[2,6]       *              0             0             1
    29 x[2,7]       *              0             0             1
    30 x[2,8]       *              0             0             1
    31 x[2,9]       *              0             0             1
    32 x[2,10]      *              0             0             1
    33 x[2,11]      *              0             0             1
    34 x[2,12]      *              0             0             1
    35 x[3,1]       *              0             0             1
    36 x[3,2]       *              0             0             1
    37 x[3,4]       *              0             0             1
    38 x[3,5]       *              0             0             1
    39 x[3,6]       *              1             0             1
    40 x[3,7]       *              0             0             1
    41 x[3,8]       *              0             0             1
    42 x[3,9]       *              0             0             1
    43 x[3,10]      *              0             0             1
    44 x[3,11]      *              0             0             1
    45 x[3,12]      *              0             0             1
    46 x[4,1]       *              1             0             1
    47 x[4,2]       *              0             0             1
    48 x[4,3]       *              0             0             1
    49 x[4,5]       *              0             0             1
    50 x[4,6]       *              0             0             1
    51 x[4,7]       *              0             0             1
    52 x[4,8]       *              0             0             1
    53 x[4,9]       *              0             0             1
    54 x[4,10]      *              0             0             1
    55 x[4,11]      *              0             0             1
    56 x[4,12]      *              0             0             1
    57 x[5,1]       *              0             0             1
    58 x[5,2]       *              0             0             1
    59 x[5,3]       *              1             0             1
    60 x[5,4]       *              0             0             1
    61 x[5,6]       *              0             0             1
    62 x[5,7]       *              0             0             1
    63 x[5,8]       *              0             0             1
    64 x[5,9]       *              0             0             1
    65 x[5,10]      *              0             0             1
    66 x[5,11]      *              0             0             1
    67 x[5,12]      *              0             0             1
    68 x[6,1]       *              0             0             1
    69 x[6,2]       *              0             0             1
    70 x[6,3]       *              0             0             1
    71 x[6,4]       *              0             0             1
    72 x[6,5]       *              0             0             1
    73 x[6,7]       *              0             0             1
    74 x[6,8]       *              0             0             1
    75 x[6,9]       *              0             0             1
    76 x[6,10]      *              1             0             1
    77 x[6,11]      *              0             0             1
    78 x[6,12]      *              0             0             1
    79 x[7,1]       *              0             0             1
    80 x[7,2]       *              0             0             1
    81 x[7,3]       *              0             0             1
    82 x[7,4]       *              0             0             1
    83 x[7,5]       *              0             0             1
    84 x[7,6]       *              0             0             1
    85 x[7,8]       *              1             0             1
    86 x[7,9]       *              0             0             1
    87 x[7,10]      *              0             0             1
    88 x[7,11]      *              0             0             1
    89 x[7,12]      *              0             0             1
    90 x[8,1]       *              0             0             1
    91 x[8,2]       *              0             0             1
    92 x[8,3]       *              0             0             1
    93 x[8,4]       *              0             0             1
    94 x[8,5]       *              0             0             1
    95 x[8,6]       *              0             0             1
    96 x[8,7]       *              0             0             1
    97 x[8,9]       *              0             0             1
    98 x[8,10]      *              0             0             1
    99 x[8,11]      *              1             0             1
   100 x[8,12]      *              0             0             1
   101 x[9,1]       *              0             0             1
   102 x[9,2]       *              1             0             1
   103 x[9,3]       *              0             0             1
   104 x[9,4]       *              0             0             1
   105 x[9,5]       *              0             0             1
   106 x[9,6]       *              0             0             1
   107 x[9,7]       *              0             0             1
   108 x[9,8]       *              0             0             1
   109 x[9,10]      *              0             0             1
   110 x[9,11]      *              0             0             1
   111 x[9,12]      *              0             0             1
   112 x[10,1]      *              0             0             1
   113 x[10,2]      *              0             0             1
   114 x[10,3]      *              0             0             1
   115 x[10,4]      *              0             0             1
   116 x[10,5]      *              0             0             1
   117 x[10,6]      *              0             0             1
   118 x[10,7]      *              1             0             1
   119 x[10,8]      *              0             0             1
   120 x[10,9]      *              0             0             1
   121 x[10,11]     *              0             0             1
   122 x[10,12]     *              0             0             1
   123 x[11,1]      *              0             0             1
   124 x[11,2]      *              0             0             1
   125 x[11,3]      *              0             0             1
   126 x[11,4]      *              0             0             1
   127 x[11,5]      *              0             0             1
   128 x[11,6]      *              0             0             1
   129 x[11,7]      *              0             0             1
   130 x[11,8]      *              0             0             1
   131 x[11,9]      *              0             0             1
   132 x[11,10]     *              0             0             1
   133 x[11,12]     *              1             0             1
   134 u[0]         *              0             0
   135 u[1]         *              2             0
   136 u[2]         *              4             0
   137 u[3]         *              6             0
   138 u[4]         *              1             0
   139 u[5]         *              5             0
   140 u[6]         *              7             0
   141 u[7]         *              9             0
   142 u[8]         *             10             0
   143 u[9]         *              3             0
   144 u[10]        *              8             0
   145 u[11]        *             11             0
   146 u[12]        *             12             0

Integer feasibility conditions:

INT.PE: max.abs.err. = 0.00e+000 on row 0
        max.rel.err. = 0.00e+000 on row 0
        High quality

INT.PB: max.abs.err. = 0.00e+000 on row 0
        max.rel.err. = 0.00e+000 on row 0
        High quality

End of output
